
n_res = 6;
rcap = [19, 17, 832, 785, 720, 668];
rtype = [1, 1, 2, 2, 2, 2];
n_tasks = 50;
modes =  [{1, 2, 3, 4, 5, 6, 7, 8, 9}, {10, 11, 12, 13, 14, 15, 16, 17, 18}, {19, 20, 21, 22, 23, 24, 25, 26, 27}, {28, 29, 30, 31, 32, 33, 34, 35, 36}, {37, 38, 39, 40, 41, 42, 43, 44, 45}, {46, 47, 48, 49, 50, 51, 52, 53, 54}, {55, 56, 57, 58, 59, 60, 61, 62, 63}, {64, 65, 66, 67, 68, 69, 70, 71, 72}, {73, 74, 75, 76, 77, 78, 79, 80, 81}, {82, 83, 84, 85, 86, 87, 88, 89, 90}, {91, 92, 93, 94, 95, 96, 97, 98, 99}, {100, 101, 102, 103, 104, 105, 106, 107, 108}, {109, 110, 111, 112, 113, 114, 115, 116, 117}, {118, 119, 120, 121, 122, 123, 124, 125, 126}, {127, 128, 129, 130, 131, 132, 133, 134, 135}, {136, 137, 138, 139, 140, 141, 142, 143, 144}, {145, 146, 147, 148, 149, 150, 151, 152, 153}, {154, 155, 156, 157, 158, 159, 160, 161, 162}, {163, 164, 165, 166, 167, 168, 169, 170, 171}, {172, 173, 174, 175, 176, 177, 178, 179, 180}, {181, 182, 183, 184, 185, 186, 187, 188, 189}, {190, 191, 192, 193, 194, 195, 196, 197, 198}, {199, 200, 201, 202, 203, 204, 205, 206, 207}, {208, 209, 210, 211, 212, 213, 214, 215, 216}, {217, 218, 219, 220, 221, 222, 223, 224, 225}, {226, 227, 228, 229, 230, 231, 232, 233, 234}, {235, 236, 237, 238, 239, 240, 241, 242, 243}, {244, 245, 246, 247, 248, 249, 250, 251, 252}, {253, 254, 255, 256, 257, 258, 259, 260, 261}, {262, 263, 264, 265, 266, 267, 268, 269, 270}, {271, 272, 273, 274, 275, 276, 277, 278, 279}, {280, 281, 282, 283, 284, 285, 286, 287, 288}, {289, 290, 291, 292, 293, 294, 295, 296, 297}, {298, 299, 300, 301, 302, 303, 304, 305, 306}, {307, 308, 309, 310, 311, 312, 313, 314, 315}, {316, 317, 318, 319, 320, 321, 322, 323, 324}, {325, 326, 327, 328, 329, 330, 331, 332, 333}, {334, 335, 336, 337, 338, 339, 340, 341, 342}, {343, 344, 345, 346, 347, 348, 349, 350, 351}, {352, 353, 354, 355, 356, 357, 358, 359, 360}, {361, 362, 363, 364, 365, 366, 367, 368, 369}, {370, 371, 372, 373, 374, 375, 376, 377, 378}, {379, 380, 381, 382, 383, 384, 385, 386, 387}, {388, 389, 390, 391, 392, 393, 394, 395, 396}, {397, 398, 399, 400, 401, 402, 403, 404, 405}, {406, 407, 408, 409, 410, 411, 412, 413, 414}, {415, 416, 417, 418, 419, 420, 421, 422, 423}, {424, 425, 426, 427, 428, 429, 430, 431, 432}, {433, 434, 435, 436, 437, 438, 439, 440, 441}, {442, 443, 444, 445, 446, 447, 448, 449, 450}];
succ =  [{49, 48, 45, 42, 32, 30, 29, 26, 21, 16, 14}, {50, 44, 39, 32, 31, 30, 27, 26, 24, 22}, {46, 45, 43, 32, 31, 30, 29, 22, 21, 20}, {45, 44, 31, 29, 26, 19, 14}, {46, 45, 43, 40, 39, 36, 29, 27, 23, 22}, {47, 46, 44, 39, 31, 30, 27, 26, 22}, {47, 46, 44, 43, 40, 38, 29, 27, 21}, {48, 45, 43, 42, 31, 29, 21, 20}, {49, 44, 43, 40, 38, 35, 27, 21}, {49, 46, 45, 42, 31, 29, 21}, {45, 26, 14}, {45, 40, 39, 37, 32, 30, 26}, {47, 44, 43, 42, 41, 38, 37, 36, 35, 34}, {47, 46, 40, 39, 38, 36, 35, 34, 33}, {43, 32, 30, 21}, {50, 44, 41, 39, 38, 36, 35, 34}, {44, 43, 39, 38, 36, 34, 29}, {45, 43, 40, 34, 26}, {35, 21}, {39, 38, 37, 36, 35, 34}, {41, 39, 37, 36, 34}, {48, 42, 41, 35, 34}, {44, 42, 38, 35, 34}, {43, 40, 35, 34}, {44, 40, 37, 34}, {38, 36, 35}, {42, 37, 34}, {43, 42, 35}, {35}, {34}, {40}, {34}, {37}, {}, {}, {}, {}, {}, {}, {}, {}, {}, {}, {}, {}, {}, {}, {}, {}, {}];
n_opt = 450;
dur = [4, 6, 7, 12, 22, 23, 24, 27, 30, 4, 8, 9, 11, 13, 14, 20, 21, 27, 1, 6, 8, 11, 16, 19, 22, 24, 29, 7, 10, 13, 16, 23, 26, 27, 28, 30, 2, 4, 9, 11, 16, 18, 19, 24, 28, 1, 2, 3, 4, 12, 13, 14, 27, 28, 2, 3, 4, 7, 13, 20, 22, 24, 30, 1, 3, 4, 8, 19, 20, 22, 24, 30, 4, 6, 11, 14, 16, 21, 22, 26, 30, 4, 5, 12, 13, 18, 22, 25, 27, 28, 1, 3, 7, 8, 23, 26, 27, 29, 30, 4, 5, 6, 7, 9, 14, 23, 27, 30, 1, 12, 14, 15, 17, 18, 21, 22, 27, 2, 3, 10, 12, 16, 19, 25, 28, 29, 10, 16, 17, 18, 19, 20, 23, 26, 29, 6, 9, 10, 19, 22, 23, 25, 28, 30, 4, 11, 12, 14, 19, 20, 21, 27, 30, 1, 2, 5, 7, 8, 9, 14, 16, 27, 2, 9, 11, 14, 15, 18, 22, 28, 29, 2, 3, 5, 8, 22, 25, 26, 28, 29, 2, 7, 8, 16, 18, 26, 27, 28, 30, 13, 14, 15, 16, 17, 18, 19, 28, 29, 1, 8, 9, 12, 22, 23, 24, 26, 27, 4, 6, 8, 15, 21, 26, 27, 28, 29, 7, 9, 10, 11, 12, 13, 21, 22, 30, 4, 5, 8, 12, 16, 17, 19, 26, 27, 1, 4, 5, 6, 18, 21, 24, 25, 28, 10, 16, 17, 18, 21, 24, 25, 28, 29, 3, 4, 5, 9, 11, 14, 18, 19, 27, 1, 8, 17, 18, 19, 20, 21, 24, 26, 2, 3, 8, 9, 10, 17, 23, 28, 29, 2, 4, 9, 10, 14, 15, 20, 28, 29, 1, 3, 4, 6, 18, 20, 23, 24, 25, 1, 6, 12, 14, 15, 17, 24, 26, 28, 3, 8, 13, 21, 22, 23, 24, 25, 30, 1, 3, 6, 8, 9, 12, 13, 20, 28, 3, 8, 9, 10, 13, 14, 17, 20, 24, 3, 11, 12, 13, 18, 27, 28, 29, 30, 2, 7, 8, 9, 10, 22, 23, 24, 30, 5, 6, 7, 11, 17, 21, 22, 23, 24, 3, 4, 8, 17, 18, 19, 20, 23, 26, 5, 8, 10, 14, 16, 20, 21, 27, 30, 6, 8, 14, 15, 16, 23, 24, 28, 30, 4, 6, 12, 14, 16, 21, 24, 28, 30, 4, 9, 10, 11, 12, 15, 16, 17, 28, 3, 5, 20, 21, 23, 24, 28, 29, 30, 3, 16, 18, 19, 20, 21, 23, 24, 27, 7, 11, 18, 19, 20, 21, 23, 26, 30, 4, 7, 12, 17, 18, 19, 20, 22, 27, 1, 2, 3, 5, 8, 12, 23, 24, 30];
rreq = [|5, 4, 4, 4, 4, 3, 3, 3, 3, 3, 3, 3, 3, 3, 3, 3, 3, 3, 4, 4, 4, 3, 2, 2, 1, 1, 1, 4, 3, 3, 2, 2, 2, 1, 1, 1, 3, 3, 3, 3, 2, 2, 2, 2, 2, 2, 2, 2, 2, 1, 1, 1, 1, 1, 3, 3, 3, 3, 3, 3, 3, 3, 3, 3, 2, 2, 2, 2, 2, 2, 2, 2, 3, 3, 3, 3, 3, 2, 2, 2, 2, 3, 3, 3, 3, 2, 2, 1, 1, 1, 4, 3, 3, 3, 2, 2, 2, 1, 1, 1, 1, 1, 1, 1, 1, 1, 1, 1, 4, 3, 3, 3, 3, 2, 2, 2, 2, 5, 4, 4, 4, 4, 4, 4, 4, 4, 3, 2, 2, 2, 2, 2, 2, 2, 2, 4, 3, 3, 3, 2, 2, 1, 1, 1, 5, 4, 4, 4, 4, 3, 3, 3, 3, 3, 3, 3, 3, 2, 2, 2, 2, 2, 5, 4, 3, 3, 3, 2, 2, 1, 1, 5, 5, 5, 5, 5, 5, 5, 5, 5, 2, 2, 2, 2, 2, 2, 2, 2, 2, 4, 4, 4, 4, 4, 4, 4, 4, 4, 3, 3, 3, 3, 3, 3, 3, 3, 3, 4, 3, 3, 3, 3, 2, 2, 2, 2, 4, 4, 4, 3, 3, 3, 2, 2, 2, 3, 3, 3, 3, 3, 3, 3, 3, 3, 4, 3, 3, 2, 2, 2, 2, 1, 1, 4, 4, 4, 4, 4, 4, 4, 4, 4, 1, 1, 1, 1, 1, 1, 1, 1, 1, 3, 2, 2, 2, 2, 1, 1, 1, 1, 5, 4, 4, 3, 3, 2, 1, 1, 1, 4, 3, 3, 3, 3, 3, 3, 3, 3, 2, 2, 2, 2, 1, 1, 1, 1, 1, 4, 3, 3, 3, 3, 2, 2, 2, 2, 5, 5, 5, 5, 5, 5, 5, 5, 5, 3, 3, 3, 3, 3, 3, 3, 3, 3, 4, 4, 4, 4, 3, 3, 3, 2, 2, 4, 3, 3, 3, 3, 3, 3, 3, 3, 1, 1, 1, 1, 1, 1, 1, 1, 1, 2, 1, 1, 1, 1, 1, 1, 1, 1, 5, 4, 3, 3, 2, 2, 1, 1, 1, 5, 5, 5, 5, 5, 5, 5, 5, 5, 4, 4, 4, 4, 3, 3, 3, 2, 2, 3, 3, 3, 3, 2, 2, 2, 2, 2, 3, 3, 3, 3, 2, 2, 1, 1, 1, 3, 3, 3, 3, 3, 3, 3, 3, 3, 4, 4, 4, 3, 3, 3, 2, 2, 2, 4, 4, 4, 3, 3, 3, 3, 2, 2, 5, 4, 4, 4, 3, 3, 3, 3, 3, 5, 5, 5, 5, 5, 5, 5, 5, 5
 |3, 3, 3, 3, 2, 2, 1, 1, 1, 5, 4, 4, 4, 3, 3, 3, 3, 3, 5, 4, 4, 4, 4, 4, 4, 4, 4, 2, 1, 1, 1, 1, 1, 1, 1, 1, 4, 3, 3, 3, 2, 2, 2, 2, 2, 1, 1, 1, 1, 1, 1, 1, 1, 1, 1, 1, 1, 1, 1, 1, 1, 1, 1, 3, 2, 2, 2, 2, 2, 2, 2, 2, 5, 5, 5, 5, 5, 5, 5, 5, 5, 1, 1, 1, 1, 1, 1, 1, 1, 1, 4, 3, 3, 3, 3, 2, 2, 2, 2, 3, 3, 3, 2, 2, 2, 1, 1, 1, 2, 1, 1, 1, 1, 1, 1, 1, 1, 4, 4, 3, 3, 2, 2, 1, 1, 1, 1, 1, 1, 1, 1, 1, 1, 1, 1, 4, 4, 4, 4, 4, 4, 4, 4, 4, 4, 4, 4, 3, 3, 3, 3, 2, 2, 5, 4, 4, 4, 4, 4, 4, 4, 4, 3, 2, 2, 2, 2, 2, 2, 2, 2, 4, 3, 3, 3, 3, 3, 3, 3, 3, 4, 4, 4, 4, 4, 4, 4, 4, 4, 1, 1, 1, 1, 1, 1, 1, 1, 1, 3, 2, 2, 2, 2, 2, 2, 2, 2, 2, 1, 1, 1, 1, 1, 1, 1, 1, 4, 4, 4, 3, 3, 3, 2, 2, 2, 1, 1, 1, 1, 1, 1, 1, 1, 1, 5, 4, 3, 3, 2, 2, 1, 1, 1, 3, 3, 3, 3, 3, 3, 3, 3, 3, 5, 5, 5, 5, 5, 5, 5, 5, 5, 4, 3, 3, 3, 3, 3, 3, 3, 3, 4, 3, 3, 3, 2, 2, 2, 1, 1, 1, 1, 1, 1, 1, 1, 1, 1, 1, 1, 1, 1, 1, 1, 1, 1, 1, 1, 2, 2, 2, 2, 2, 2, 2, 2, 2, 4, 4, 4, 3, 3, 3, 3, 2, 2, 3, 2, 2, 2, 2, 1, 1, 1, 1, 4, 3, 3, 3, 2, 2, 2, 1, 1, 3, 2, 2, 2, 2, 2, 2, 2, 2, 4, 3, 3, 3, 2, 2, 2, 2, 2, 5, 4, 4, 3, 3, 3, 2, 2, 2, 2, 1, 1, 1, 1, 1, 1, 1, 1, 3, 3, 3, 2, 2, 2, 1, 1, 1, 4, 3, 3, 3, 2, 2, 1, 1, 1, 3, 3, 3, 3, 2, 2, 2, 2, 2, 2, 1, 1, 1, 1, 1, 1, 1, 1, 3, 3, 3, 2, 2, 2, 2, 1, 1, 2, 1, 1, 1, 1, 1, 1, 1, 1, 1, 1, 1, 1, 1, 1, 1, 1, 1, 4, 3, 3, 3, 3, 2, 2, 2, 2, 5, 4, 4, 4, 3, 3, 3, 2, 2
 |17, 15, 15, 12, 12, 9, 8, 5, 4, 22, 19, 18, 16, 15, 11, 9, 8, 6, 16, 16, 15, 13, 13, 12, 10, 10, 9, 29, 29, 29, 29, 29, 28, 28, 28, 28, 30, 26, 25, 23, 21, 18, 15, 12, 11, 21, 21, 21, 20, 20, 20, 20, 19, 19, 29, 28, 28, 26, 26, 26, 25, 24, 23, 20, 19, 16, 15, 12, 11, 9, 7, 6, 13, 11, 10, 9, 9, 9, 8, 6, 6, 29, 27, 26, 25, 25, 25, 24, 22, 22, 17, 17, 17, 17, 16, 16, 16, 16, 16, 22, 20, 20, 19, 19, 18, 18, 18, 17, 1, 1, 1, 1, 1, 1, 1, 1, 1, 2, 2, 2, 2, 2, 2, 2, 2, 2, 21, 21, 21, 21, 21, 21, 21, 21, 21, 19, 16, 13, 12, 10, 9, 5, 4, 3, 26, 25, 22, 21, 16, 15, 12, 10, 9, 2, 1, 1, 1, 1, 1, 1, 1, 1, 11, 11, 10, 10, 9, 9, 9, 8, 8, 18, 18, 18, 18, 18, 17, 17, 17, 17, 18, 15, 15, 13, 12, 9, 7, 6, 6, 22, 21, 21, 21, 20, 20, 19, 19, 18, 18, 17, 17, 15, 15, 13, 13, 11, 11, 26, 25, 25, 24, 24, 24, 23, 23, 23, 20, 20, 16, 15, 13, 11, 10, 6, 5, 13, 13, 13, 13, 13, 12, 12, 12, 12, 28, 24, 22, 18, 16, 11, 9, 6, 4, 24, 24, 24, 24, 24, 24, 24, 24, 24, 20, 18, 18, 17, 16, 16, 16, 14, 14, 20, 16, 14, 13, 12, 10, 8, 5, 2, 23, 22, 21, 20, 19, 17, 17, 16, 15, 23, 22, 20, 14, 12, 9, 7, 6, 2, 26, 23, 20, 17, 16, 10, 7, 6, 3, 22, 21, 21, 21, 20, 20, 20, 19, 19, 28, 25, 22, 17, 16, 12, 7, 7, 1, 21, 20, 20, 19, 18, 16, 16, 14, 14, 21, 19, 17, 16, 14, 11, 7, 5, 5, 25, 24, 24, 23, 23, 22, 21, 21, 21, 23, 21, 19, 17, 15, 14, 11, 9, 8, 17, 17, 17, 17, 17, 17, 17, 17, 17, 21, 18, 18, 17, 15, 13, 11, 10, 10, 19, 18, 17, 16, 15, 15, 14, 13, 12, 27, 26, 26, 25, 25, 25, 25, 24, 24, 27, 26, 26, 26, 26, 26, 26, 26, 26, 29, 29, 29, 28, 27, 27, 26, 26, 26, 29, 29, 28, 27, 25, 25, 24, 23, 22, 21, 20, 19, 19, 18, 18, 18, 17, 17, 23, 22, 22, 22, 21, 21, 20, 20, 20, 22, 19, 18, 16, 14, 14, 12, 9, 9, 14, 13, 13, 12, 12, 11, 11, 11, 10
 |17, 17, 16, 14, 13, 11, 9, 8, 7, 23, 23, 21, 20, 20, 19, 18, 17, 15, 2, 2, 2, 2, 2, 2, 2, 2, 2, 28, 24, 23, 22, 21, 19, 18, 16, 14, 17, 16, 16, 16, 16, 16, 16, 16, 16, 24, 23, 21, 20, 19, 18, 17, 16, 16, 11, 11, 9, 9, 8, 6, 6, 4, 4, 26, 26, 26, 26, 25, 25, 25, 25, 25, 25, 25, 20, 16, 14, 13, 7, 4, 2, 16, 15, 15, 15, 14, 14, 14, 14, 14, 21, 21, 21, 21, 21, 21, 21, 21, 21, 22, 21, 20, 19, 17, 16, 16, 15, 14, 29, 29, 29, 29, 29, 28, 28, 28, 28, 29, 26, 21, 18, 16, 15, 12, 6, 4, 16, 14, 14, 13, 12, 12, 12, 11, 10, 16, 15, 15, 14, 12, 12, 11, 9, 9, 25, 25, 24, 22, 22, 21, 19, 18, 18, 13, 12, 12, 11, 11, 10, 9, 9, 8, 28, 28, 24, 24, 22, 19, 19, 16, 14, 27, 25, 24, 21, 19, 17, 13, 11, 11, 28, 25, 21, 18, 18, 14, 13, 10, 9, 14, 14, 14, 14, 13, 13, 13, 12, 12, 18, 15, 12, 10, 10, 7, 6, 3, 2, 12, 10, 10, 9, 7, 6, 5, 3, 2, 29, 27, 27, 24, 24, 23, 20, 19, 18, 20, 18, 17, 17, 16, 16, 14, 13, 13, 22, 19, 18, 14, 13, 9, 8, 4, 3, 24, 22, 21, 17, 16, 13, 10, 10, 8, 20, 17, 15, 14, 12, 12, 9, 8, 8, 23, 23, 23, 23, 22, 22, 22, 22, 22, 19, 17, 14, 13, 12, 11, 8, 5, 4, 28, 26, 25, 25, 24, 22, 22, 21, 20, 22, 18, 18, 16, 12, 10, 9, 6, 5, 29, 27, 25, 23, 23, 20, 20, 18, 15, 25, 20, 18, 15, 11, 9, 8, 4, 3, 28, 25, 22, 18, 15, 14, 11, 6, 5, 25, 25, 23, 23, 21, 20, 19, 18, 17, 23, 23, 21, 16, 14, 13, 9, 8, 4, 11, 10, 10, 9, 9, 8, 8, 8, 7, 4, 3, 3, 3, 2, 2, 2, 2, 2, 13, 11, 11, 11, 10, 10, 9, 9, 8, 15, 13, 13, 12, 11, 10, 9, 8, 8, 23, 23, 23, 23, 23, 22, 22, 22, 22, 27, 27, 26, 26, 24, 24, 23, 23, 22, 28, 24, 24, 22, 19, 17, 17, 15, 13, 17, 15, 14, 12, 11, 9, 7, 5, 5, 24, 23, 18, 16, 15, 12, 7, 5, 2, 12, 11, 11, 11, 10, 10, 9, 9, 9, 12, 11, 11, 11, 11, 11, 11, 11, 11, 19, 18, 17, 16, 14, 13, 13, 11, 11
 |22, 21, 18, 17, 14, 14, 12, 10, 8, 25, 21, 19, 17, 12, 10, 7, 6, 1, 8, 8, 6, 5, 4, 4, 2, 2, 1, 28, 24, 22, 17, 15, 13, 9, 9, 5, 20, 18, 16, 15, 12, 10, 9, 9, 7, 19, 18, 17, 15, 15, 15, 13, 13, 12, 26, 21, 20, 18, 16, 14, 12, 10, 8, 26, 25, 24, 22, 19, 18, 16, 15, 14, 23, 22, 20, 20, 19, 19, 17, 17, 16, 25, 21, 19, 15, 15, 13, 10, 7, 6, 27, 26, 25, 25, 25, 24, 24, 23, 23, 26, 25, 23, 21, 20, 19, 18, 16, 15, 28, 27, 26, 26, 25, 25, 25, 24, 24, 16, 16, 15, 14, 14, 13, 13, 13, 12, 6, 5, 5, 4, 4, 4, 3, 3, 3, 14, 13, 13, 12, 11, 9, 8, 8, 7, 20, 20, 20, 20, 19, 19, 19, 19, 19, 4, 3, 3, 3, 2, 2, 2, 2, 2, 28, 27, 26, 24, 23, 21, 20, 17, 17, 7, 7, 7, 6, 5, 5, 5, 4, 4, 14, 13, 11, 10, 9, 7, 5, 4, 3, 25, 22, 21, 19, 16, 15, 12, 11, 8, 24, 24, 24, 24, 23, 23, 23, 22, 22, 12, 12, 12, 12, 12, 12, 12, 12, 12, 26, 25, 24, 22, 20, 19, 19, 18, 17, 28, 27, 25, 24, 24, 24, 22, 22, 21, 18, 16, 16, 16, 15, 15, 14, 14, 13, 11, 9, 8, 7, 6, 5, 4, 3, 3, 13, 13, 13, 13, 13, 13, 13, 13, 13, 6, 5, 5, 4, 4, 3, 3, 1, 1, 12, 11, 11, 10, 9, 9, 8, 8, 8, 24, 23, 20, 18, 17, 17, 15, 14, 12, 12, 11, 11, 10, 8, 8, 7, 6, 5, 6, 6, 6, 5, 5, 5, 5, 4, 4, 28, 27, 22, 20, 17, 15, 12, 10, 7, 17, 15, 15, 12, 11, 9, 8, 7, 6, 23, 22, 19, 18, 15, 10, 8, 7, 4, 26, 23, 23, 21, 21, 19, 19, 17, 16, 23, 23, 23, 22, 22, 22, 21, 21, 21, 15, 13, 12, 10, 9, 8, 6, 6, 5, 10, 10, 10, 10, 10, 10, 10, 10, 10, 6, 6, 6, 6, 5, 5, 5, 5, 5, 11, 11, 11, 11, 11, 11, 11, 11, 11, 12, 12, 11, 10, 8, 7, 6, 4, 3, 30, 25, 20, 20, 17, 11, 8, 5, 2, 28, 27, 26, 26, 25, 25, 24, 24, 24, 18, 17, 17, 17, 15, 15, 14, 14, 13, 29, 28, 27, 27, 26, 26, 25, 24, 23, 16, 15, 15, 13, 13, 11, 11, 9, 9, 12, 9, 9, 7, 7, 5, 4, 3, 3
 |24, 24, 23, 23, 22, 22, 21, 21, 21, 18, 17, 14, 12, 10, 10, 6, 5, 2, 19, 17, 16, 14, 14, 12, 11, 8, 8, 19, 16, 16, 14, 12, 11, 10, 10, 9, 29, 29, 29, 29, 29, 28, 28, 28, 28, 12, 10, 9, 9, 8, 7, 7, 5, 5, 22, 21, 18, 17, 15, 14, 13, 11, 8, 24, 22, 20, 18, 16, 15, 13, 10, 8, 14, 13, 13, 13, 12, 12, 11, 11, 11, 21, 17, 14, 14, 10, 8, 7, 6, 3, 22, 20, 18, 17, 15, 12, 11, 7, 6, 27, 22, 21, 17, 15, 13, 7, 4, 2, 29, 28, 28, 27, 26, 24, 23, 23, 21, 15, 15, 13, 12, 10, 7, 6, 6, 3, 28, 24, 22, 19, 17, 11, 9, 7, 3, 21, 19, 17, 14, 12, 11, 10, 7, 6, 10, 8, 8, 7, 6, 6, 5, 3, 3, 5, 5, 4, 5, 4, 4, 3, 2, 3, 27, 26, 26, 26, 26, 25, 25, 25, 25, 21, 21, 21, 21, 21, 21, 21, 21, 20, 14, 14, 13, 13, 12, 12, 11, 10, 10, 23, 21, 18, 15, 12, 11, 9, 6, 4, 29, 28, 28, 27, 27, 27, 27, 26, 26, 16, 16, 15, 16, 16, 15, 15, 15, 15, 19, 17, 16, 16, 15, 14, 13, 11, 11, 7, 7, 7, 7, 6, 6, 5, 5, 5, 26, 22, 22, 18, 16, 13, 10, 9, 7, 6, 6, 6, 6, 6, 5, 5, 5, 5, 2, 2, 2, 2, 2, 1, 2, 2, 1, 17, 13, 13, 10, 10, 8, 6, 4, 3, 1, 1, 1, 1, 1, 1, 1, 1, 1, 17, 16, 16, 15, 15, 15, 14, 13, 13, 25, 25, 23, 21, 18, 18, 16, 15, 12, 16, 14, 13, 11, 10, 9, 7, 4, 3, 15, 13, 12, 10, 10, 8, 7, 6, 4, 11, 9, 7, 6, 5, 4, 3, 3, 1, 30, 29, 29, 28, 28, 28, 27, 27, 27, 2, 2, 2, 2, 1, 1, 1, 1, 1, 21, 18, 16, 15, 14, 13, 11, 9, 8, 25, 21, 20, 18, 15, 14, 11, 10, 7, 9, 8, 8, 8, 7, 7, 7, 7, 7, 25, 24, 24, 23, 21, 20, 20, 18, 18, 9, 9, 8, 7, 5, 4, 3, 2, 1, 26, 23, 21, 19, 15, 15, 11, 9, 7, 8, 8, 8, 8, 7, 7, 7, 7, 7, 16, 14, 14, 13, 11, 11, 10, 8, 8, 17, 16, 16, 16, 16, 16, 16, 16, 16, 21, 21, 19, 18, 18, 16, 15, 15, 13, 15, 14, 14, 14, 13, 13, 13, 12, 11, 9, 7, 6, 5, 5, 4, 4, 3, 2|];